GLPK/HW-0625/routing.dat
set POINTS := 1 2 3;

set LINKS := (1,2) (1,3) (2,1) (2,3) (3,1) (3,2);

param C :=
    1 2 10
    1 3 15
    2 1 10
    2 3 5
    3 1 15
    3 2 5;

param T :=
    1 1 0
    1 2 5
    1 3 0
    2 1 5
    2 2 0
    2 3 10
    3 1 0
    3 2 10
    3 3 0;

param p := 3;